(set-info :smt-lib-version 2.6)
(set-logic LIA)
(set-info
  :source |
 Generated by PSyCO 0.1
 More info in N. P. Lopes and J. Monteiro. Weakest Precondition Synthesis for
 Compiler Optimizations, VMCAI'14.
|)
(set-info :category "industrial")
(set-info :status sat)
(declare-fun R_E1_V4 () Bool)
(declare-fun W_S1_V4 () Bool)
(declare-fun R_E1_V5 () Bool)
(declare-fun W_S1_V5 () Bool)
(declare-fun W_S2_V5 () Bool)
(declare-fun W_S2_V2 () Bool)
(declare-fun W_S2_V3 () Bool)
(declare-fun W_S2_V1 () Bool)
(declare-fun W_S1_V1 () Bool)
(declare-fun R_S2_V4 () Bool)
(declare-fun R_S2_V5 () Bool)
(declare-fun R_S2_V2 () Bool)
(declare-fun R_S2_V3 () Bool)
(declare-fun R_S2_V1 () Bool)
(declare-fun R_S1_V1 () Bool)
(declare-fun R_E1_V2 () Bool)
(declare-fun DISJ_W_S2_R_E1 () Bool)
(declare-fun DISJ_W_S2_R_S2 () Bool)
(declare-fun R_S1_V4 () Bool)
(declare-fun R_S1_V5 () Bool)
(declare-fun R_S1_V2 () Bool)
(declare-fun R_S1_V3 () Bool)
(declare-fun DISJ_W_S2_R_S1 () Bool)
(declare-fun DISJ_W_S1_W_S2 () Bool)
(declare-fun R_E1_V3 () Bool)
(declare-fun DISJ_W_S1_R_S2 () Bool)
(declare-fun DISJ_W_S1_R_S1 () Bool)
(declare-fun W_S2_V4 () Bool)
(declare-fun W_S1_V3 () Bool)
(declare-fun W_S1_V2 () Bool)
(declare-fun R_E1_V1 () Bool)
(declare-fun DISJ_W_S1_R_E1 () Bool)
(assert
 (let
 (($x2697
   (forall
    ((V3_0 Int) (V2_0 Int) 
     (V5_0 Int) (V4_0 Int) 
     (MW_S1_V1 Bool) (MW_S1_V3 Bool) 
     (MW_S1_V2 Bool) (MW_S1_V5 Bool) 
     (MW_S1_V4 Bool) (MW_S2_V1 Bool) 
     (MW_S2_V3 Bool) (MW_S2_V2 Bool) 
     (MW_S2_V5 Bool) (MW_S2_V4 Bool) 
     (S1_V1_!1338 Int) (S1_V1_!1350 Int) 
     (S2_V5_!1347 Int) (S2_V5_!1358 Int) 
     (S1_V3_!1339 Int) (S1_V3_!1351 Int) 
     (S1_V2_!1340 Int) (S1_V2_!1352 Int) 
     (E1_!1337 Int) (E1_!1343 Int) 
     (E1_!1349 Int) (S2_V4_!1348 Int) 
     (S2_V4_!1359 Int) (S1_V5_!1341 Int) 
     (S1_V5_!1353 Int) (S2_V1_!1344 Int) 
     (S2_V1_!1355 Int) (S1_V4_!1342 Int) 
     (S1_V4_!1354 Int) (S2_V2_!1346 Int) 
     (S2_V2_!1357 Int) (S2_V3_!1345 Int) 
     (S2_V3_!1356 Int))
    (let
    (($x2534
      (= (ite MW_S2_V4 S2_V4_!1348 (ite MW_S1_V4 S1_V4_!1342 V4_0))
      (ite MW_S2_V4 S2_V4_!1359 (ite MW_S1_V4 S1_V4_!1354 V4_0)))))
    (let
    (($x2921
      (= (ite MW_S2_V5 S2_V5_!1347 (ite MW_S1_V5 S1_V5_!1341 V5_0))
      (ite MW_S2_V5 S2_V5_!1358 (ite MW_S1_V5 S1_V5_!1353 V5_0)))))
    (let
    (($x2793
      (= (ite MW_S2_V2 S2_V2_!1346 (ite MW_S1_V2 S1_V2_!1340 V2_0))
      (ite MW_S2_V2 S2_V2_!1357 (ite MW_S1_V2 S1_V2_!1352 V2_0)))))
    (let
    (($x2892
      (= (ite MW_S2_V3 S2_V3_!1345 (ite MW_S1_V3 S1_V3_!1339 V3_0))
      (ite MW_S2_V3 S2_V3_!1356 (ite MW_S1_V3 S1_V3_!1351 V3_0)))))
    (let
    (($x2693
      (and
      (= (ite MW_S2_V1 S2_V1_!1344 E1_!1343)
      (ite MW_S2_V1 S2_V1_!1355 (ite MW_S1_V1 S1_V1_!1350 E1_!1349))) $x2892
      $x2793 $x2921 $x2534)))
    (let
    (($x2765
      (>= (ite MW_S2_V1 S2_V1_!1355 (ite MW_S1_V1 S1_V1_!1350 E1_!1349))
      (+ (- 1) (ite MW_S2_V2 S2_V2_!1357 (ite MW_S1_V2 S1_V2_!1352 V2_0))))))
    (let
    (($x2664
      (>= (ite MW_S2_V1 S2_V1_!1344 E1_!1343)
      (+ (- 1) (ite MW_S2_V2 S2_V2_!1346 (ite MW_S1_V2 S1_V2_!1340 V2_0))))))
    (let
    (($x2859
      (and (not (<= V2_0 E1_!1337))
      (>= (ite MW_S1_V1 S1_V1_!1338 E1_!1337)
      (+ (- 1) (ite MW_S1_V2 S1_V2_!1340 V2_0)))
      (not (<= (ite MW_S1_V2 S1_V2_!1340 V2_0) E1_!1343)) $x2664
      (not (<= V2_0 E1_!1349)) $x2765)))
    (let
    (($x2900
      (and
      (or (not R_S2_V1) (= (ite MW_S1_V1 S1_V1_!1350 E1_!1349) E1_!1343))
      (or (not R_S2_V3)
      (= (ite MW_S1_V3 S1_V3_!1351 V3_0) (ite MW_S1_V3 S1_V3_!1339 V3_0)))
      (or (not R_S2_V2)
      (= (ite MW_S1_V2 S1_V2_!1352 V2_0) (ite MW_S1_V2 S1_V2_!1340 V2_0)))
      (or (not R_S2_V5)
      (= (ite MW_S1_V5 S1_V5_!1353 V5_0) (ite MW_S1_V5 S1_V5_!1341 V5_0)))
      (or (not R_S2_V4)
      (= (ite MW_S1_V4 S1_V4_!1354 V4_0) (ite MW_S1_V4 S1_V4_!1342 V4_0))))))
    (let (($x2598 (not $x2900)))
    (let
    (($x2495
      (and
      (or (not R_S2_V1) (= E1_!1343 (ite MW_S1_V1 S1_V1_!1350 E1_!1349)))
      (or (not R_S2_V3)
      (= (ite MW_S1_V3 S1_V3_!1339 V3_0) (ite MW_S1_V3 S1_V3_!1351 V3_0)))
      (or (not R_S2_V2)
      (= (ite MW_S1_V2 S1_V2_!1340 V2_0) (ite MW_S1_V2 S1_V2_!1352 V2_0)))
      (or (not R_S2_V5)
      (= (ite MW_S1_V5 S1_V5_!1341 V5_0) (ite MW_S1_V5 S1_V5_!1353 V5_0)))
      (or (not R_S2_V4)
      (= (ite MW_S1_V4 S1_V4_!1342 V4_0) (ite MW_S1_V4 S1_V4_!1354 V4_0))))))
    (let
    (($x2515
      (and (or (not R_E1_V2) (= (ite MW_S1_V2 S1_V2_!1340 V2_0) V2_0))
      (or (not R_E1_V5) (= (ite MW_S1_V5 S1_V5_!1341 V5_0) V5_0))
      (or (not R_E1_V4) (= (ite MW_S1_V4 S1_V4_!1342 V4_0) V4_0)))))
    (let
    (($x2475
      (and
      (or (not (or (not R_S1_V1) (= E1_!1349 E1_!1337)))
      (= S1_V1_!1350 S1_V1_!1338)) 
      (or $x2598 (= S2_V5_!1358 S2_V5_!1347))
      (or (not (or (not R_S1_V1) (= E1_!1337 E1_!1349)))
      (= S1_V3_!1339 S1_V3_!1351))
      (or (not (or (not R_S1_V1) (= E1_!1349 E1_!1337)))
      (= S1_V2_!1352 S1_V2_!1340)) 
      (= E1_!1337 E1_!1349) 
      (or (not $x2515) (= E1_!1343 E1_!1337))
      (or (not $x2515) (= E1_!1343 E1_!1349))
      (or (not $x2495) (= S2_V4_!1348 S2_V4_!1359))
      (or (not (or (not R_S1_V1) (= E1_!1349 E1_!1337)))
      (= S1_V5_!1353 S1_V5_!1341))
      (or (not $x2495) (= S2_V1_!1344 S2_V1_!1355))
      (or (not (or (not R_S1_V1) (= E1_!1337 E1_!1349)))
      (= S1_V4_!1342 S1_V4_!1354)) 
      (or $x2598 (= S2_V2_!1357 S2_V2_!1346))
      (or $x2598 (= S2_V3_!1356 S2_V3_!1345)) 
      (or (not MW_S1_V1) W_S1_V1) 
      (not MW_S1_V2) (or (not MW_S1_V5) W_S1_V5) 
      (or (not MW_S1_V4) W_S1_V4) 
      (or (not MW_S2_V1) W_S2_V1) 
      (or (not MW_S2_V3) W_S2_V3) 
      (or (not MW_S2_V2) W_S2_V2) 
      (or (not MW_S2_V5) W_S2_V5)))) 
    (or (not $x2475) (not $x2859) $x2693)))))))))))))))))
 (let
 (($x2955 (not (or (and W_S2_V2 R_E1_V2) (and W_S2_V5 R_E1_V5) R_E1_V4))))
 (let
 (($x113
   (or (and W_S2_V1 R_S2_V1) 
   (and W_S2_V3 R_S2_V3) (and W_S2_V2 R_S2_V2) 
   (and W_S2_V5 R_S2_V5) R_S2_V4)))
 (let (($x115 (= DISJ_W_S2_R_S2 (not $x113))))
 (let
 (($x110
   (or (and W_S2_V1 R_S1_V1) 
   (and W_S2_V3 R_S1_V3) (and W_S2_V2 R_S1_V2) 
   (and W_S2_V5 R_S1_V5) R_S1_V4)))
 (let (($x112 (= DISJ_W_S2_R_S1 (not $x110))))
 (let (($x63 (and W_S1_V5 W_S2_V5)))
 (let (($x57 (and W_S1_V1 W_S2_V1)))
 (let (($x155 (not R_E1_V3)))
 (let (($x37 (and W_S1_V4 R_S2_V4)))
 (let (($x35 (and W_S1_V5 R_S2_V5)))
 (let (($x29 (and W_S1_V1 R_S2_V1)))
 (let (($x23 (and W_S1_V4 R_S1_V4)))
 (let (($x20 (and W_S1_V5 R_S1_V5)))
 (let (($x12 (and W_S1_V1 R_S1_V1)))
 (let (($x2350 (not W_S1_V2)))
 (let (($x153 (not R_E1_V1)))
 (and DISJ_W_S1_R_E1 $x153 $x2350 W_S1_V3 W_S2_V4
 (= DISJ_W_S1_R_S1 (not (or $x12 R_S1_V3 $x20 $x23)))
 (= DISJ_W_S1_R_S2 (not (or $x29 R_S2_V3 $x35 $x37))) $x155
 (= DISJ_W_S1_W_S2 (not (or $x57 W_S2_V3 $x63 W_S1_V4))) $x112 $x115
 (= DISJ_W_S2_R_E1 $x2955) $x2697 
 (not (and W_S1_V5 R_E1_V5)) 
 (not (and W_S1_V4 R_E1_V4)))))))))))))))))))))
(check-sat)
(exit)

